NAME : in_house_7_11
TYPE : TSP
DIMENSION : 7
EDGE_WEIGHT_TYPE : EXPLICIT
EDGE_WEIGHT_FORMAT : UPPER_ROW
COMMENT : INVERSION_SHIFT=5
EDGE_WEIGHT_SECTION
5
46
5
35
23
36
24
6
41
16
15
39
46
31
29
37
32
48
21
35
13
